16 32
1 2 4
1 5 4
2 3 2
2 6 3
3 4 5
3 7 1
4 8 2
5 6 5
5 9 3
6 7 2
6 10 3
7 8 4
7 11 3
8 12 2
9 10 2
9 13 4
10 11 3
10 14 2
11 12 3
11 15 1
12 16 2
13 14 1
14 15 1
15 16 3
1 13 5
2 14 1
3 15 3
4 16 5
1 4 4
5 8 2
9 12 4
13 16 5
